(set-info :smt-lib-version 2.6)
(set-logic QF_S)
(set-info :source |
Generated by: Oliver Markgraf, Hongjian Jiang, Daniel Stan, Anthony W. Lin, Philipp Ruemmer
Generated on: 2025-04-08
Application: Using String Solvers to solve RMC problems encoded as CHC over Strings
Target solver: cvc5, OSTRICH, Z3, Z3alpha, Z3-noodler
Time limit: 60.0
Benchmarks are extracted by running HornStr https://arg-git.informatik.uni-kl.de/pub/string-chc-lib on all benchmarks
provided in the repository and gathering the string queries sent to the string solvers.
|)
(set-info :license "https://creativecommons.org/licenses/by/4.0/")
(set-info :category "industrial")
(set-info :status unknown)
(declare-fun varout () String)
(assert (let ((a!1 (re.union (re.union (re.union (str.to_re "a") (str.to_re "H"))
                               (str.to_re "b"))
                     (str.to_re "d"))))
(let ((a!2 (re.* (re.union (re.union a!1 (str.to_re "E")) (str.to_re "c")))))
  (str.in_re varout a!2))))
(declare-fun varin () String)
(assert (let ((a!1 (re.union (re.union (re.union (str.to_re "a") (str.to_re "H"))
                               (str.to_re "b"))
                     (str.to_re "d"))))
(let ((a!2 (re.* (re.union (re.union a!1 (str.to_re "E")) (str.to_re "c")))))
  (str.in_re varin a!2))))
(declare-fun X () String)
(declare-fun Y () String)
(declare-fun reg0 () String)
(declare-fun isin () Bool)
(declare-fun isout () Bool)
(assert (let ((a!1 (re.union (re.union (re.union (str.to_re "H") (str.to_re "c"))
                               (str.to_re "d"))
                     (str.to_re "a"))))
(let ((a!2 (str.in_re reg0 (re.* (re.union a!1 (str.to_re "b"))))))
  (or (and true
           (= X (str.++ "a"))
           (= Y (str.++ "E"))
           a!2
           (= X varin)
           isin
           (= Y varout)
           isout)))))
(assert (let ((a!1 (re.union (re.union (re.union (str.to_re "a") (str.to_re "H"))
                               (str.to_re "b"))
                     (str.to_re "d"))))
(let ((a!2 (re.++ (re.union a!1 (str.to_re "c"))
                  (re.* (re.union a!1 (str.to_re "c")))))
      (a!4 (re.++ (re.* (re.union a!1 (str.to_re "c"))) (str.to_re "E"))))
(let ((a!3 (re.++ (re.* (re.union a!1 (str.to_re "c")))
                  (re.union (str.to_re "") a!2)))
      (a!5 (re.union (str.to_re "E") (re.++ (re.union a!1 (str.to_re "c")) a!4))))
(let ((a!6 (re.++ (re.* (re.union a!1 (str.to_re "c"))) a!5))
      (a!8 (re.union (str.to_re "") (re.++ (re.union a!1 (str.to_re "c")) a!3))))
(let ((a!7 (re.* (re.++ (re.union a!1 (str.to_re "c")) a!6))))
(let ((a!9 (re.++ (re.++ (re.union a!1 (str.to_re "c")) a!6) (re.++ a!7 a!8))))
(let ((a!10 (re.union a!3 (re.++ a!6 (re.++ a!7 (re.union a!8 a!9))))))
  (str.in_re varin a!10)))))))))
(assert (let ((a!1 (re.union (re.union (re.union (str.to_re "a") (str.to_re "H"))
                               (str.to_re "b"))
                     (str.to_re "d"))))
(let ((a!2 (re.++ (re.* (re.union a!1 (str.to_re "c"))) (str.to_re "E")))
      (a!8 (re.* (re.union (re.union a!1 (str.to_re "E")) (str.to_re "c")))))
(let ((a!3 (re.union (str.to_re "E") (re.++ (re.union a!1 (str.to_re "c")) a!2)))
      (a!9 (re.++ (re.union (re.union a!1 (str.to_re "E")) (str.to_re "c")) a!8)))
(let ((a!4 (re.++ (re.* (re.union a!1 (str.to_re "c"))) a!3)))
(let ((a!5 (re.* (re.++ (re.union a!1 (str.to_re "c")) a!4))))
(let ((a!6 (re.++ (re.++ (re.union a!1 (str.to_re "c")) a!4)
                  (re.++ a!5 (str.to_re "E")))))
(let ((a!7 (re.++ a!4 (re.++ a!5 (re.union (str.to_re "E") a!6)))))
(let ((a!10 (re.++ a!7 (re.++ a!8 (re.union (str.to_re "") a!9)))))
  (str.in_re varout a!10))))))))))
(check-sat)
(exit)
